(set-logic SLHV)
(declare-hvar emp IntHeap)
(declare-locvar nil IntLoc)
(declare-datatype pt_record_0 ((Pt_R_0 (loc IntLoc))))
(declare-datatype pt_record_1 ((Pt_R_1 (data Int))))
(declare-const invalidFree_2 Bool)
(declare-const loc_2 Int)
(declare-const $r_main0_1 Int)
(declare-const $r_main0_2 Int)
(declare-const $i5_main0_1 Int)
(declare-const $i5_main0_2 Int)
(declare-locvar $p4_main0_1 IntLoc)
(declare-locvar $p4_main0_2 IntLoc)
(declare-locvar $p4_free_g20_1 IntLoc)
(declare-locvar $p4_free_g20_2 IntLoc)
(declare-locvar $p3_main0_1 IntLoc)
(declare-locvar $p3_main0_2 IntLoc)
(declare-locvar $p3_free_g20_1 IntLoc)
(declare-locvar $p3_free_g20_2 IntLoc)
(declare-locvar $p2_main0_1 IntLoc)
(declare-locvar $p2_main0_2 IntLoc)
(declare-locvar $p2_free_g20_1 IntLoc)
(declare-locvar $p2_free_g20_2 IntLoc)
(declare-locvar $p1_main0_1 IntLoc)
(declare-locvar $p1_main0_2 IntLoc)
(declare-locvar $p1_free_g10_1 IntLoc)
(declare-locvar $p1_free_g10_2 IntLoc)
(declare-locvar $p0_main0_1 IntLoc)
(declare-locvar $p0_main0_2 IntLoc)
(declare-locvar $p0_free_g10_1 IntLoc)
(declare-locvar $p0_free_g10_2 IntLoc)
(declare-const invalidFree2_2 Bool)
(declare-hvar H5_2 IntHeap)
(declare-hvar H_2 IntHeap)
(declare-hvar AH4_2 IntHeap)
(declare-hvar AH_2 IntHeap)
(declare-locvar $p9_main01_2 IntLoc)
(declare-locvar $p9_main0_2 IntLoc)
(declare-locvar $p8_main01_2 IntLoc)
(declare-locvar $p8_main0_2 IntLoc)
(declare-locvar $p7_main01_2 IntLoc)
(declare-locvar $p7_main0_2 IntLoc)
(declare-locvar $p6_main01_2 IntLoc)
(declare-locvar $p6_main0_2 IntLoc)
(declare-locvar $p10_main01_2 IntLoc)
(declare-locvar $p10_main0_2 IntLoc)
(declare-locvar $p0_free_g201_2 IntLoc)
(declare-locvar $p0_free_g20_2 IntLoc)
(declare-const $i1_free_g201_2 Int)
(declare-const $i1_free_g20_2 Int)
(declare-locvar $M.03_2 IntLoc)
(declare-locvar $M.0_2 IntLoc)
(declare-const invalidFree1_2 Bool)
(declare-hvar h6_2 IntHeap)
(declare-locvar l10_2 IntLoc)
(declare-const d9_2 Int)
(declare-hvar H4_2 IntHeap)
(declare-const d7_2 Int)
(declare-locvar l9_2 IntLoc)
(declare-const d8_2 Int)
(declare-hvar ah3 IntHeap)
(declare-hvar AH3_2 IntHeap)
(declare-const d10_2 Int)
(declare-hvar ah4_2 IntHeap)
(declare-locvar $M.0_1 IntLoc)
(declare-const invalidFree_1 Bool)
(declare-hvar h5_2 IntHeap)
(declare-locvar l8_2 IntLoc)
(declare-const d5_2 Int)
(declare-hvar H_1 IntHeap)
(declare-const d3_2 Int)
(declare-locvar l7_2 IntLoc)
(declare-const d4_2 Int)
(declare-hvar ah1 IntHeap)
(declare-hvar AH_1 IntHeap)
(declare-const d6_2 Int)
(declare-hvar ah2_2 IntHeap)
(declare-locvar l5_2 IntLoc)
(declare-hvar h3_2 IntHeap)
(declare-const loc_1 Int)
(declare-const $i1_free_g20_1 Int)
(declare-locvar $p9_main0_1 IntLoc)
(declare-locvar $p8_main0_1 IntLoc)
(declare-locvar $p7_main0_1 IntLoc)
(declare-locvar $p6_main0_1 IntLoc)
(declare-locvar $p10_main0_1 IntLoc)
(declare-locvar $p0_free_g20_1 IntLoc)
(declare-const invalidFree_0 Bool)
(declare-const $r_main0_0 Int)
(declare-const $i5_main0_0 Int)
(declare-const $i1_free_g20_0 Int)
(declare-locvar $p9_main0_0 IntLoc)
(declare-locvar $p8_main0_0 IntLoc)
(declare-locvar $p7_main0_0 IntLoc)
(declare-locvar $p6_main0_0 IntLoc)
(declare-locvar $p4_free_g20_0 IntLoc)
(declare-locvar $p3_free_g20_0 IntLoc)
(declare-locvar $p2_free_g20_0 IntLoc)
(declare-locvar $p1_free_g10_0 IntLoc)
(declare-locvar $p10_main0_0 IntLoc)
(declare-locvar $p0_free_g20_0 IntLoc)
(declare-locvar $p0_free_g10_0 IntLoc)
(declare-hvar H3_1 IntHeap)
(declare-hvar AH2_1 IntHeap)
(declare-locvar $p4_main01_1 IntLoc)
(declare-locvar $p3_main01_1 IntLoc)
(declare-locvar $p2_main01_1 IntLoc)
(declare-locvar $p1_main01_1 IntLoc)
(declare-locvar $p0_main01_1 IntLoc)
(declare-locvar $M.02_1 IntLoc)
(declare-hvar h1_1 IntHeap)
(declare-locvar l3_1 IntLoc)
(declare-hvar H2_1 IntHeap)
(declare-locvar l2_1 IntLoc)
(declare-hvar AH1_1 IntHeap)
(declare-const d2_1 Int)
(declare-hvar H1_1 IntHeap)
(declare-locvar l1_1 IntLoc)
(declare-hvar AH_0 IntHeap)
(declare-const d1_1 Int)
(declare-hvar H_0 IntHeap)
(declare-locvar $M.01_1 IntLoc)
(declare-const loc_0 Int)
(assert
 (let (($x923 (= loc_2 4)))
 (let (($x734 (= $r_main0_2 $r_main0_1)))
 (let (($x920 (and (and true (= $i5_main0_2 $i5_main0_1)) $x734)))
 (let (($x712 (= $p4_main0_2 $p4_main0_1)))
 (let (($x709 (= $p4_free_g20_2 $p4_free_g20_1)))
 (let (($x706 (= $p3_main0_2 $p3_main0_1)))
 (let (($x703 (= $p3_free_g20_2 $p3_free_g20_1)))
 (let (($x700 (= $p2_main0_2 $p2_main0_1)))
 (let (($x697 (= $p2_free_g20_2 $p2_free_g20_1)))
 (let (($x694 (= $p1_main0_2 $p1_main0_1)))
 (let (($x691 (= $p1_free_g10_2 $p1_free_g10_1)))
 (let (($x685 (= $p0_main0_2 $p0_main0_1)))
 (let (($x910 (and (and (and true (= $p0_free_g10_2 $p0_free_g10_1)) $x685) $x691)))
 (let (($x916 (and (and (and (and (and (and $x910 $x694) $x697) $x700) $x703) $x706) $x709)))
 (let (($x917 (and $x916 $x712)))
 (let (($x1014 (= invalidFree_2 invalidFree2_2)))
 (let (($x903 (= H_2 H5_2)))
 (let (($x901 (= AH_2 AH4_2)))
 (let (($x899 (= $p9_main0_2 $p9_main01_2)))
 (let (($x897 (= $p8_main0_2 $p8_main01_2)))
 (let (($x895 (= $p7_main0_2 $p7_main01_2)))
 (let (($x893 (= $p6_main0_2 $p6_main01_2)))
 (let (($x891 (= $p10_main0_2 $p10_main01_2)))
 (let (($x889 (= $p0_free_g20_2 $p0_free_g201_2)))
 (let (($x890 (and (and (= $M.0_2 $M.03_2) (= $i1_free_g20_2 $i1_free_g201_2)) $x889)))
 (let (($x902 (and (and (and (and (and (and $x890 $x891) $x893) $x895) $x897) $x899) $x901)))
 (let (($x904 (and $x902 $x903)))
 (let (($x783 (= $i1_free_g201_2 0)))
 (let (($x789 (or (and (and (distinct $p0_free_g201_2 nil) true) (= $i1_free_g201_2 1)) (and (not (and (distinct $p0_free_g201_2 nil) true)) $x783))))
 (let (($x791 (= $p0_free_g201_2 $M.03_2)))
 (let (($x974 (or $x791 invalidFree2_2)))
 (let (($x793 (= $M.03_2 nil)))
 (let (($x975 (or $x793 invalidFree2_2)))
 (let (($x976 (= invalidFree2_2 invalidFree1_2)))
 (let (($x977 (and invalidFree1_2 $x976)))
 (let (($x795 (= H5_2 h6_2)))
 (let (($x796 (= $p10_main01_2 l10_2)))
 (let (($x800 (= H4_2 (uplus h6_2 (pt l10_2 (Pt_R_1 d9_2))))))
 (let (($x803 (= d7_2 1)))
 (let (($x805 (= $p10_main01_2 l9_2)))
 (let (($x809 (= H4_2 (uplus h6_2 (pt l9_2 (Pt_R_1 d8_2))))))
 (let (($x812 (= d7_2 2)))
 (let (($x814 (and (=> $x812 (and (and $x809 $x805) $x795)) (=> $x803 (and (and $x800 $x796) $x795)))))
 (let (($x815 (= AH4_2 ah3)))
 (let (($x819 (= AH3_2 (uplus ah3 (pt $p10_main01_2 (Pt_R_1 d7_2))))))
 (let (($x821 (and (and $x819 $x815) $x814)))
 (let (($x984 (or (= $p10_main01_2 nil) (= ah4_2 (uplus AH3_2 (pt $p10_main01_2 (Pt_R_1 d10_2)))))))
 (let (($x985 (and $x984 invalidFree2_2)))
 (let (($x823 (= $p10_main01_2 $p9_main01_2)))
 (let (($x988 (or $x823 invalidFree1_2)))
 (let (($x825 (= $p9_main01_2 $M.0_1)))
 (let (($x989 (or $x825 invalidFree1_2)))
 (let (($x990 (= invalidFree1_2 invalidFree_1)))
 (let (($x991 (and invalidFree_1 $x990)))
 (let (($x827 (= H4_2 h5_2)))
 (let (($x828 (= $p8_main01_2 l8_2)))
 (let (($x832 (= H_1 (uplus h5_2 (pt l8_2 (Pt_R_1 d5_2))))))
 (let (($x835 (= d3_2 1)))
 (let (($x837 (= $p8_main01_2 l7_2)))
 (let (($x841 (= H_1 (uplus h5_2 (pt l7_2 (Pt_R_1 d4_2))))))
 (let (($x844 (= d3_2 2)))
 (let (($x846 (and (=> $x844 (and (and $x841 $x837) $x827)) (=> $x835 (and (and $x832 $x828) $x827)))))
 (let (($x847 (= AH3_2 ah1)))
 (let (($x851 (= AH_1 (uplus ah1 (pt $p8_main01_2 (Pt_R_1 d3_2))))))
 (let (($x853 (and (and $x851 $x847) $x846)))
 (let (($x998 (or (= $p8_main01_2 nil) (= ah2_2 (uplus AH_1 (pt $p8_main01_2 (Pt_R_1 d6_2)))))))
 (let (($x999 (and $x998 invalidFree1_2)))
 (let (($x855 (= $p8_main01_2 $p7_main01_2)))
 (let (($x1002 (or $x855 invalidFree_1)))
 (let (($x864 (and (= H_1 (uplus h3_2 (pt $p6_main01_2 (Pt_R_0 l5_2)))) (= $p7_main01_2 l5_2))))
 (let (($x1003 (or $x864 invalidFree_1)))
 (let (($x875 (= $p6_main01_2 $M.0_1)))
 (let (($x1004 (or $x875 invalidFree_1)))
 (let (($x1007 (and (and (and $x1004 $x1003) $x1002) (or (or $x999 (and $x853 $x990)) $x991))))
 (let (($x1010 (and (and (and $x1007 $x989) $x988) (or (or $x985 (and $x821 $x976)) $x977))))
 (let (($x1016 (and (and (and (and $x1010 $x975) $x974) (or $x789 invalidFree2_2)) (and $x904 $x1014))))
 (let (($x666 (= loc_1 2)))
 (let (($x782 (and $x666 (not (= $i5_main0_1 1)))))
 (let (($x749 (= loc_2 3)))
 (let (($x963 (= invalidFree_2 invalidFree_1)))
 (let (($x741 (= H_2 H_1)))
 (let (($x742 (and (and true (= AH_2 AH_1)) $x741)))
 (let (($x731 (= $i5_main0_2 $i5_main0_1)))
 (let (($x735 (and (and (and true (= $i1_free_g20_2 $i1_free_g20_1)) $x731) $x734)))
 (let (($x724 (= $p9_main0_2 $p9_main0_1)))
 (let (($x721 (= $p8_main0_2 $p8_main0_1)))
 (let (($x718 (= $p7_main0_2 $p7_main0_1)))
 (let (($x715 (= $p6_main0_2 $p6_main0_1)))
 (let (($x688 (= $p10_main0_2 $p10_main0_1)))
 (let (($x682 (= $p0_free_g20_2 $p0_free_g20_1)))
 (let (($x679 (= $p0_free_g10_2 $p0_free_g10_1)))
 (let (($x689 (and (and (and (and (and true (= $M.0_2 $M.0_1)) $x679) $x682) $x685) $x688)))
 (let (($x707 (and (and (and (and (and (and $x689 $x691) $x694) $x697) $x700) $x703) $x706)))
 (let (($x725 (and (and (and (and (and (and $x707 $x709) $x712) $x715) $x718) $x721) $x724)))
 (let (($x960 (and (and (and (or true invalidFree_1) (and true true)) $x725) $x735)))
 (let (($x670 (= $i5_main0_1 1)))
 (let (($x671 (and $x666 $x670)))
 (let (($x1021 (and (=> $x671 (and (and (and $x960 $x742) $x963) $x749)) (=> $x782 (and (and (and $x1016 $x917) $x920) $x923)))))
 (let (($x952 (= invalidFree_1 invalidFree_0)))
 (let (($x662 (= $r_main0_1 $r_main0_0)))
 (let (($x658 (= $i5_main0_1 $i5_main0_0)))
 (let (($x663 (and (and (and true (= $i1_free_g20_1 $i1_free_g20_0)) $x658) $x662)))
 (let (($x649 (= $p9_main0_1 $p9_main0_0)))
 (let (($x645 (= $p8_main0_1 $p8_main0_0)))
 (let (($x641 (= $p7_main0_1 $p7_main0_0)))
 (let (($x637 (= $p6_main0_1 $p6_main0_0)))
 (let (($x633 (= $p4_free_g20_1 $p4_free_g20_0)))
 (let (($x629 (= $p3_free_g20_1 $p3_free_g20_0)))
 (let (($x625 (= $p2_free_g20_1 $p2_free_g20_0)))
 (let (($x621 (= $p1_free_g10_1 $p1_free_g10_0)))
 (let (($x617 (= $p10_main0_1 $p10_main0_0)))
 (let (($x613 (= $p0_free_g20_1 $p0_free_g20_0)))
 (let (($x618 (and (and (and true (= $p0_free_g10_1 $p0_free_g10_0)) $x613) $x617)))
 (let (($x642 (and (and (and (and (and (and $x618 $x621) $x625) $x629) $x633) $x637) $x641)))
 (let (($x650 (and (and $x642 $x645) $x649)))
 (let (($x601 (= H_1 H3_1)))
 (let (($x598 (= AH_1 AH2_1)))
 (let (($x595 (= $p4_main0_1 $p4_main01_1)))
 (let (($x592 (= $p3_main0_1 $p3_main01_1)))
 (let (($x589 (= $p2_main0_1 $p2_main01_1)))
 (let (($x586 (= $p1_main0_1 $p1_main01_1)))
 (let (($x587 (and (and (= $M.0_1 $M.02_1) (= $p0_main0_1 $p0_main01_1)) $x586)))
 (let (($x602 (and (and (and (and (and $x587 $x589) $x592) $x595) $x598) $x601)))
 (let (($x947 (and $x602 true)))
 (let (($x530 (and (= H2_1 (uplus h1_1 (pt $p4_main01_1 (Pt_R_0 l3_1)))) (= H3_1 (uplus h1_1 (pt $p4_main01_1 (Pt_R_0 $p2_main01_1)))))))
 (let (($x932 (or $x530 invalidFree_0)))
 (let (($x541 (= $p4_main01_1 $M.02_1)))
 (let (($x933 (or $x541 invalidFree_0)))
 (let (($x543 (= $p3_main01_1 $p2_main01_1)))
 (let (($x934 (or $x543 invalidFree_0)))
 (let (($x547 (= AH2_1 (uplus AH1_1 (pt l2_1 (Pt_R_1 2))))))
 (let (($x548 (= $p2_main01_1 l2_1)))
 (let (($x552 (= H2_1 (uplus H1_1 (pt l2_1 (Pt_R_1 d2_1))))))
 (let (($x554 (and (and $x552 $x548) $x547)))
 (let (($x556 (= $M.02_1 $p0_main01_1)))
 (let (($x936 (or $x556 invalidFree_0)))
 (let (($x558 (= $p1_main01_1 $p0_main01_1)))
 (let (($x937 (or $x558 invalidFree_0)))
 (let (($x562 (= AH1_1 (uplus AH_0 (pt l1_1 (Pt_R_1 1))))))
 (let (($x563 (= $p0_main01_1 l1_1)))
 (let (($x567 (= H1_1 (uplus H_0 (pt l1_1 (Pt_R_1 d1_1))))))
 (let (($x569 (and (and $x567 $x563) $x562)))
 (let (($x571 (= $M.01_1 nil)))
 (let (($x939 (or $x571 invalidFree_0)))
 (let (($x943 (and (and (and (and $x939 (or $x569 invalidFree_0)) $x937) $x936) (or $x554 invalidFree_0))))
 (let (($x950 (and (and (and (and (and (and $x943 $x934) $x933) $x932) $x947) $x650) $x663)))
 (let (($x494 (= loc_0 1)))
 (let (($x930 (not invalidFree_0)))
 (let (($x496 (and (and (= H_0 emp) (= AH_0 emp)) $x494)))
 (let (($x1022 (and (and (and $x496 $x930) (=> $x494 (and (and $x950 $x952) $x666))) $x1021)))
 (and $x1022 invalidFree_2))))))))))))))))))))))))))))))))))))))))))))))))))))))))))))))))))))))))))))))))))))))))))))))))))))))))))))))))))))))))))))))))))))))))))))))))))))))))
(check-sat)
